proyfinal/src/viki/013/andrea/andrea-localstore/experimentInOfficeAgust.take6/worker_11/e6b8a62d-a18c-4805-be21-60563b9fa20a.als.cnf.out
Reading from standard input... Use '--help' for help.
============================[ Problem Statistics ]=============================
|                                                                             |
|  Number of variables:         87638                                         |
|  Number of clauses:          161767                                         |
|  Parse time:                   0.04 s                                       |
|                                                                             |
============================[ Search Statistics ]==============================
| Conflicts |          ORIGINAL         |          LEARNT          | Progress |
|           |    Vars  Clauses Literals |    Limit  Clauses Lit/Cl |          |
===============================================================================
|       100 |   62374   105153   262706 |    38556      100      9 | 28.828 % |
|       250 |   62374   105153   262706 |    42411      250     21 | 28.828 % |
|       475 |   62373   105109   262616 |    46652      473     39 | 28.829 % |
|       812 |   62373   105109   262616 |    51318      810     55 | 28.829 % |
|      1318 |   62361   105061   262484 |    56449     1288     45 | 28.843 % |
|      2077 |   62361   105061   262484 |    62094     2047     44 | 28.843 % |
|      3216 |   62361   105061   262484 |    68304     3186     77 | 28.843 % |
|      4924 |   62357   105045   262440 |    75134     4884     70 | 28.847 % |
|      7486 |   62357   105045   262440 |    82648     7446     66 | 28.847 % |
|     11330 |   62357   105045   262440 |    90913    11290     67 | 28.847 % |
===============================================================================
restarts              : 62
conflicts             : 14826          (7732 /sec)
decisions             : 50316          (0.00 % random) (26239 /sec)
propagations          : 19946064       (10401561 /sec)
conflict literals     : 899751         (50.38 % deleted)
Memory used           : 37.57 MB
CPU time              : 1.9176 s

UNSATISFIABLE
